2596, 0, 0, 37, 4
2597, 0, 1, 64, 3
2598, 0, 2, 96, 1
2599, 0, 3, 41, 0
2600, 0, 4, 60, 2
2601, 1, 0, 95, 1
2602, 1, 1, 55, 3
2603, 1, 2, 67, 0
2604, 1, 3, 44, 4
2605, 1, 4, 74, 2
2606, 2, 0, 44, 0
2607, 2, 1, 58, 4
2608, 2, 2, 48, 3
2609, 2, 3, 37, 1
2610, 2, 4, 83, 2
2611, 3, 0, 81, 4
2612, 3, 1, 46, 0
2613, 3, 2, 48, 2
2614, 3, 3, 70, 3
2615, 3, 4, 52, 1
